sat
(model 
  (define-fun x1083 () Int
    27)
  (define-fun x1737 () Int
    344)
  (define-fun x1851 () Int
    371)
  (define-fun x1638 () Int
    213)
  (define-fun x1415 () Int
    153)
  (define-fun x1250 () Int
    84)
  (define-fun x1218 () Int
    68)
  (define-fun x1164 () Int
    49)
  (define-fun x1335 () Int
    128)
  (define-fun x1571 () Int
    274)
  (define-fun x1280 () Int
    114)
  (define-fun x1147 () Int
    45)
  (define-fun x1702 () Int
    326)
  (define-fun x1963 () Int
    357)
  (define-fun x1189 () Int
    102)
  (define-fun x1324 () Int
    234)
  (define-fun x1510 () Int
    188)
  (define-fun x1752 () Int
    230)
  (define-fun x1724 () Int
    337)
  (define-fun x1219 () Int
    69)
  (define-fun x1857 () Int
    373)
  (define-fun x1786 () Int
    267)
  (define-fun x1266 () Int
    110)
  (define-fun x1471 () Int
    169)
  (define-fun x1485 () Int
    178)
  (define-fun x1204 () Int
    107)
  (define-fun x1298 () Int
    116)
  (define-fun x1156 () Int
    47)
  (define-fun x1784 () Int
    265)
  (define-fun x1736 () Int
    343)
  (define-fun x1101 () Int
    91)
  (define-fun x1773 () Int
    261)
  (define-fun x1802 () Int
    275)
  (define-fun x1133 () Int
    97)
  (define-fun x1572 () Int
    275)
  (define-fun x1010 () Int
    10)
  (define-fun x1682 () Int
    304)
  (define-fun x1281 () Int
    90)
  (define-fun x1886 () Int
    279)
  (define-fun x1968 () Int
    359)
  (define-fun x1151 () Int
    46)
  (define-fun x1836 () Int
    360)
  (define-fun x1911 () Int
    311)
  (define-fun x1929 () Int
    321)
  (define-fun x1769 () Int
    260)
  (define-fun x1304 () Int
    117)
  (define-fun x1626 () Int
    208)
  (define-fun x1558 () Int
    258)
  (define-fun x1444 () Int
    246)
  (define-fun x1064 () Int
    21)
  (define-fun x1327 () Int
    123)
  (define-fun x1406 () Int
    146)
  (define-fun x1451 () Int
    251)
  (define-fun x1858 () Int
    374)
  (define-fun x1999 () Int
    375)
  (define-fun x1264 () Int
    109)
  (define-fun x1535 () Int
    198)
  (define-fun x1028 () Int
    14)
  (define-fun x1103 () Int
    92)
  (define-fun x1313 () Int
    230)
  (define-fun x1401 () Int
    144)
  (define-fun x1409 () Int
    149)
  (define-fun x1794 () Int
    273)
  (define-fun x1178 () Int
    57)
  (define-fun x1338 () Int
    130)
  (define-fun x1603 () Int
    291)
  (define-fun x1813 () Int
    351)
  (define-fun x1484 () Int
    177)
  (define-fun x1971 () Int
    362)
  (define-fun x1198 () Int
    63)
  (define-fun x1201 () Int
    106)
  (define-fun x1115 () Int
    38)
  (define-fun x1867 () Int
    379)
  (define-fun x1211 () Int
    108)
  (define-fun x1477 () Int
    172)
  (define-fun x1193 () Int
    103)
  (define-fun x1447 () Int
    247)
  (define-fun x1917 () Int
    315)
  (define-fun x1990 () Int
    370)
  (define-fun x1336 () Int
    129)
  (define-fun x1663 () Int
    223)
  (define-fun x1656 () Int
    218)
  (define-fun x1978 () Int
    367)
  (define-fun x1062 () Int
    20)
  (define-fun x1722 () Int
    335)
  (define-fun x1615 () Int
    298)
  (define-fun x1552 () Int
    256)
  (define-fun x1980 () Int
    368)
  (define-fun x1504 () Int
    184)
  (define-fun x1117 () Int
    39)
  (define-fun x1261 () Int
    86)
  (define-fun x1424 () Int
    156)
  (define-fun x1448 () Int
    248)
  (define-fun x1695 () Int
    320)
  (define-fun x1842 () Int
    368)
  (define-fun x1001 () Int
    3)
  (define-fun x1475 () Int
    170)
  (define-fun x1600 () Int
    290)
  (define-fun x1233 () Int
    73)
  (define-fun x1026 () Int
    13)
  (define-fun x1551 () Int
    255)
  (define-fun x1085 () Int
    29)
  (define-fun x1329 () Int
    124)
  (define-fun x1240 () Int
    77)
  (define-fun x1125 () Int
    95)
  (define-fun x1078 () Int
    25)
  (define-fun x1550 () Int
    254)
  (define-fun x1945 () Int
    328)
  (define-fun x1321 () Int
    120)
  (define-fun x1871 () Int
    381)
  (define-fun x1652 () Int
    217)
  (define-fun x1333 () Int
    126)
  (define-fun x1035 () Int
    15)
  (define-fun x1796 () Int
    274)
  (define-fun x1290 () Int
    115)
  (define-fun x1428 () Int
    157)
  (define-fun x1543 () Int
    204)
  (define-fun x1414 () Int
    152)
  (define-fun x1532 () Int
    195)
  (define-fun x1730 () Int
    339)
  (define-fun x1056 () Int
    57)
  (define-fun x1223 () Int
    70)
  (define-fun x1076 () Int
    24)
  (define-fun x1703 () Int
    327)
  (define-fun x1830 () Int
    355)
  (define-fun x1034 () Int
    54)
  (define-fun x1365 () Int
    139)
  (define-fun x1575 () Int
    277)
  (define-fun x1748 () Int
    229)
  (define-fun x1694 () Int
    307)
  (define-fun x1711 () Int
    331)
  (define-fun x1860 () Int
    376)
  (define-fun x1715 () Int
    332)
  (define-fun x1660 () Int
    222)
  (define-fun x1483 () Int
    176)
  (define-fun x1506 () Int
    186)
  (define-fun x1091 () Int
    31)
  (define-fun x1734 () Int
    341)
  (define-fun x1270 () Int
    111)
  (define-fun x1357 () Int
    137)
  (define-fun x1354 () Int
    134)
  (define-fun x1334 () Int
    127)
  (define-fun x1407 () Int
    147)
  (define-fun x1095 () Int
    33)
  (define-fun x1667 () Int
    227)
  (define-fun x1716 () Int
    333)
  (define-fun x1921 () Int
    319)
  (define-fun x1731 () Int
    340)
  (define-fun x1012 () Int
    11)
  (define-fun x1699 () Int
    323)
  (define-fun x1305 () Int
    117)
  (define-fun x1833 () Int
    358)
  (define-fun x1231 () Int
    72)
  (define-fun x1042 () Int
    17)
  (define-fun x1941 () Int
    326)
  (define-fun x1634 () Int
    211)
  (define-fun x1172 () Int
    53)
  (define-fun x1320 () Int
    232)
  (define-fun x1200 () Int
    64)
  (define-fun x1437 () Int
    162)
  (define-fun x1534 () Int
    197)
  (define-fun x1385 () Int
    143)
  (define-fun x1348 () Int
    132)
  (define-fun x1513 () Int
    189)
  (define-fun x1271 () Int
    88)
  (define-fun x1241 () Int
    78)
  (define-fun x1913 () Int
    313)
  (define-fun x1721 () Int
    334)
  (define-fun x1355 () Int
    135)
  (define-fun x1563 () Int
    259)
  (define-fun x1416 () Int
    154)
  (define-fun x1664 () Int
    224)
  (define-fun x1738 () Int
    345)
  (define-fun x1838 () Int
    364)
  (define-fun x1315 () Int
    119)
  (define-fun x1097 () Int
    34)
  (define-fun x1289 () Int
    115)
  (define-fun x1696 () Int
    321)
  (define-fun x1986 () Int
    369)
  (define-fun x1326 () Int
    235)
  (define-fun x1809 () Int
    347)
  (define-fun x1957 () Int
    355)
  (define-fun x1288 () Int
    91)
  (define-fun x1328 () Int
    236)
  (define-fun x1597 () Int
    288)
  (define-fun x1579 () Int
    281)
  (define-fun x1735 () Int
    342)
  (define-fun x1553 () Int
    257)
  (define-fun x1007 () Int
    7)
  (define-fun x1878 () Int
    385)
  (define-fun x1130 () Int
    41)
  (define-fun x1785 () Int
    266)
  (define-fun x1697 () Int
    322)
  (define-fun x1092 () Int
    87)
  (define-fun x1061 () Int
    84)
  (define-fun x1991 () Int
    371)
  (define-fun x1099 () Int
    35)
  (define-fun x1142 () Int
    99)
  (define-fun x1669 () Int
    228)
  (define-fun x1642 () Int
    214)
  (define-fun x1274 () Int
    113)
  (define-fun x1256 () Int
    85)
  (define-fun x1592 () Int
    287)
  (define-fun x1835 () Int
    359)
  (define-fun x1003 () Int
    5)
  (define-fun x1536 () Int
    199)
  (define-fun x1582 () Int
    283)
  (define-fun x1408 () Int
    148)
  (define-fun x1912 () Int
    312)
  (define-fun x1904 () Int
    308)
  (define-fun x1665 () Int
    225)
  (define-fun x1961 () Int
    356)
  (define-fun x1344 () Int
    131)
  (define-fun x1371 () Int
    141)
  (define-fun x1084 () Int
    28)
  (define-fun x1179 () Int
    58)
  (define-fun x1545 () Int
    205)
  (define-fun x1449 () Int
    249)
  (define-fun x1237 () Int
    74)
  (define-fun x1478 () Int
    173)
  (define-fun x1020 () Int
    12)
  (define-fun x1465 () Int
    167)
  (define-fun x1900 () Int
    307)
  (define-fun x1998 () Int
    374)
  (define-fun x1610 () Int
    296)
  (define-fun x1317 () Int
    231)
  (define-fun x1009 () Int
    9)
  (define-fun x1332 () Int
    125)
  (define-fun x1577 () Int
    279)
  (define-fun x1086 () Int
    86)
  (define-fun x1394 () Int
    243)
  (define-fun x1311 () Int
    229)
  (define-fun x1170 () Int
    51)
  (define-fun x1366 () Int
    140)
  (define-fun x1507 () Int
    187)
  (define-fun x1609 () Int
    295)
  (define-fun x1608 () Int
    294)
  (define-fun x1906 () Int
    309)
  (define-fun x1215 () Int
    67)
  (define-fun x1764 () Int
    235)
  (define-fun x1837 () Int
    363)
  (define-fun x1087 () Int
    30)
  (define-fun x1461 () Int
    166)
  (define-fun x1829 () Int
    354)
  (define-fun x1140 () Int
    98)
  (define-fun x1970 () Int
    361)
  (define-fun x1934 () Int
    323)
  (define-fun x1132 () Int
    42)
  (define-fun x1723 () Int
    336)
  (define-fun x1302 () Int
    116)
  (define-fun x1920 () Int
    318)
  (define-fun x1245 () Int
    80)
  (define-fun x1309 () Int
    228)
  (define-fun x1455 () Int
    252)
  (define-fun x1135 () Int
    43)
  (define-fun x1180 () Int
    59)
  (define-fun x1248 () Int
    83)
  (define-fun x1482 () Int
    175)
  (define-fun x1765 () Int
    259)
  (define-fun x1976 () Int
    365)
  (define-fun x1082 () Int
    26)
  (define-fun x1476 () Int
    171)
  (define-fun x1791 () Int
    270)
  (define-fun x1701 () Int
    325)
  (define-fun x1704 () Int
    328)
  (define-fun x1896 () Int
    306)
  (define-fun x1570 () Int
    261)
  (define-fun x1974 () Int
    363)
  (define-fun x1116 () Int
    94)
  (define-fun x1632 () Int
    210)
  (define-fun x1676 () Int
    302)
  (define-fun x1174 () Int
    55)
  (define-fun x1323 () Int
    121)
  (define-fun x1498 () Int
    182)
  (define-fun x1002 () Int
    4)
  (define-fun x1892 () Int
    305)
  (define-fun x1940 () Int
    325)
  (define-fun x1041 () Int
    55)
  (define-fun x1094 () Int
    88)
  (define-fun x1539 () Int
    200)
  (define-fun x1429 () Int
    158)
  (define-fun x1310 () Int
    118)
  (define-fun x1677 () Int
    303)
  (define-fun x1625 () Int
    207)
  (define-fun x1693 () Int
    306)
  (define-fun x1792 () Int
    271)
  (define-fun x1852 () Int
    372)
  (define-fun x1576 () Int
    278)
  (define-fun x1997 () Int
    373)
  (define-fun x1948 () Int
    329)
  (define-fun x1166 () Int
    50)
  (define-fun x1362 () Int
    237)
  (define-fun x1148 () Int
    100)
  (define-fun x1843 () Int
    369)
  (define-fun x1488 () Int
    180)
  (define-fun x1494 () Int
    181)
  (define-fun x1418 () Int
    155)
  (define-fun x1707 () Int
    330)
  (define-fun x1436 () Int
    161)
  (define-fun x1263 () Int
    87)
  (define-fun x1793 () Int
    272)
  (define-fun x1919 () Int
    317)
  (define-fun x1758 () Int
    232)
  (define-fun x1933 () Int
    322)
  (define-fun x1143 () Int
    44)
  (define-fun x1469 () Int
    168)
  (define-fun x1607 () Int
    293)
  (define-fun x1387 () Int
    240)
  (define-fun x1177 () Int
    56)
  (define-fun x1578 () Int
    280)
  (define-fun x1528 () Int
    194)
  (define-fun x1440 () Int
    163)
  (define-fun x1569 () Int
    260)
  (define-fun x1675 () Int
    301)
  (define-fun x1953 () Int
    354)
  (define-fun x1356 () Int
    136)
  (define-fun x1831 () Int
    356)
  (define-fun x1832 () Int
    357)
  (define-fun x1047 () Int
    18)
  (define-fun x1939 () Int
    324)
  (define-fun x1533 () Int
    196)
  (define-fun x1325 () Int
    122)
  (define-fun x1273 () Int
    89)
  (define-fun x1443 () Int
    164)
  (define-fun x1213 () Int
    66)
  (define-fun x1435 () Int
    160)
  (define-fun x1923 () Int
    320)
  (define-fun x1621 () Int
    206)
  (define-fun x1518 () Int
    191)
  (define-fun x1753 () Int
    231)
  (define-fun x1244 () Int
    79)
  (define-fun x1246 () Int
    81)
  (define-fun x1540 () Int
    201)
  (define-fun x1573 () Int
    276)
  (define-fun x1611 () Int
    297)
  (define-fun x1872 () Int
    382)
  (define-fun x1102 () Int
    36)
  (define-fun x1160 () Int
    48)
  (define-fun x1873 () Int
    383)
  (define-fun x1891 () Int
    281)
  (define-fun x1541 () Int
    202)
  (define-fun x1587 () Int
    285)
  (define-fun x1450 () Int
    250)
  (define-fun x1413 () Int
    151)
  (define-fun x1131 () Int
    96)
  (define-fun x1155 () Int
    101)
  (define-fun x1591 () Int
    286)
  (define-fun x1888 () Int
    280)
  (define-fun x1227 () Int
    71)
  (define-fun x1349 () Int
    133)
  (define-fun x1040 () Int
    16)
  (define-fun x1727 () Int
    338)
  (define-fun x1839 () Int
    366)
  (define-fun x1370 () Int
    238)
  (define-fun x1272 () Int
    112)
  (define-fun x1505 () Int
    185)
  (define-fun x1975 () Int
    364)
  (define-fun x1996 () Int
    372)
  (define-fun x1969 () Int
    360)
  (define-fun x1542 () Int
    203)
  (define-fun x1173 () Int
    54)
  (define-fun x1783 () Int
    264)
  (define-fun x1098 () Int
    90)
  (define-fun x1027 () Int
    3)
  (define-fun x1457 () Int
    165)
  (define-fun x1874 () Int
    384)
  (define-fun x1006 () Int
    6)
  (define-fun x1810 () Int
    348)
  (define-fun x1674 () Int
    300)
  (define-fun x1742 () Int
    346)
  (define-fun x1666 () Int
    226)
  (define-fun x1526 () Int
    193)
  (define-fun x1096 () Int
    89)
  (define-fun x1396 () Int
    244)
  (define-fun x1812 () Int
    350)
  (define-fun x1514 () Int
    190)
  (define-fun x1673 () Int
    299)
  (define-fun x1646 () Int
    215)
  (define-fun x1399 () Int
    245)
  (define-fun x1393 () Int
    242)
  (define-fun x1818 () Int
    352)
  (define-fun x1412 () Int
    150)
  (define-fun x1583 () Int
    284)
  (define-fun x1239 () Int
    76)
  (define-fun x1866 () Int
    378)
  (define-fun x1029 () Int
    4)
  (define-fun x1093 () Int
    32)
  (define-fun x1181 () Int
    60)
  (define-fun x1659 () Int
    221)
  (define-fun x1806 () Int
    276)
  (define-fun x1787 () Int
    268)
  (define-fun x1199 () Int
    105)
  (define-fun x1380 () Int
    239)
  (define-fun x1761 () Int
    234)
  (define-fun x1361 () Int
    138)
  (define-fun x1637 () Int
    212)
  (define-fun x1377 () Int
    142)
  (define-fun x1068 () Int
    22)
  (define-fun x1790 () Int
    269)
  (define-fun x1023 () Int
    1)
  (define-fun x1840 () Int
    367)
  (define-fun x1110 () Int
    37)
  (define-fun x1949 () Int
    353)
  (define-fun x1171 () Int
    52)
  (define-fun x1942 () Int
    327)
  (define-fun x1247 () Int
    82)
  (define-fun x1025 () Int
    2)
  (define-fun x1114 () Int
    93)
  (define-fun x1522 () Int
    192)
  (define-fun x1918 () Int
    316)
  (define-fun x1870 () Int
    380)
  (define-fun x1967 () Int
    358)
  (define-fun x1779 () Int
    263)
  (define-fun x1823 () Int
    353)
  (define-fun x1777 () Int
    262)
  (define-fun x1048 () Int
    56)
  (define-fun x1057 () Int
    19)
  (define-fun x1859 () Int
    375)
  (define-fun x1549 () Int
    253)
  (define-fun x1977 () Int
    366)
  (define-fun x1486 () Int
    179)
  (define-fun x1192 () Int
    62)
  (define-fun x1197 () Int
    104)
  (define-fun x1700 () Int
    324)
  (define-fun x1072 () Int
    23)
  (define-fun x1128 () Int
    40)
  (define-fun x1885 () Int
    278)
  (define-fun x1322 () Int
    233)
  (define-fun x1388 () Int
    241)
  (define-fun x1631 () Int
    209)
  (define-fun x1238 () Int
    75)
  (define-fun x1658 () Int
    220)
  (define-fun x1706 () Int
    329)
  (define-fun x1657 () Int
    219)
  (define-fun x1580 () Int
    282)
  (define-fun x1604 () Int
    292)
  (define-fun x1759 () Int
    233)
  (define-fun x1210 () Int
    65)
  (define-fun x1880 () Int
    277)
  (define-fun x1499 () Int
    183)
  (define-fun x1479 () Int
    174)
  (define-fun x1687 () Int
    305)
  (define-fun x1598 () Int
    289)
  (define-fun x1405 () Int
    145)
  (define-fun x1811 () Int
    349)
  (define-fun x1910 () Int
    310)
  (define-fun x1863 () Int
    377)
  (define-fun x1059 () Int
    58)
  (define-fun x1008 () Int
    8)
  (define-fun x1434 () Int
    159)
  (define-fun x1063 () Int
    85)
  (define-fun x1847 () Int
    370)
  (define-fun x1650 () Int
    216)
  (define-fun x1914 () Int
    314)
  (define-fun x1183 () Int
    61)
)
